100
128
59
44
9
25
21
24
33
51
54
7
23
22
58
48
51
32
2
13
34
44
4
46
30
40
35
64
44
55
22
53
30
23
44
48
33
35
59
20
20
38
51
55
40
38
44
26
40
29
16
36
22
24
61
19
63
64
24
44
58
46
51
21
56
64
21
20
34
55
38
24
23
24
62
42
22
18
16
18
41
34
35
64
63
19
45
64
42
33
64
63
53
12
44
40
45
41
64
64
44
42